(set-logic QF_S)
(set-option :strings-exp true)
(set-option :produce-models true)
(declare-fun sigmaStar_0 () String)
(declare-fun sigmaStar_1 () String)
(declare-fun sigmaStar_2 () String)
(declare-fun x_10 () String)
(declare-fun literal_8 () String)
(declare-fun literal_6 () String)
(declare-fun literal_4 () String)
(assert (= literal_8 "\x61\x64\x64\x61\x6e\x65\x77\x74\x6f\x70\x69\x63"))
(assert (= literal_6 "\x61\x64\x64\x61\x6e\x65\x77\x64\x69\x73\x63\x75\x73\x73\x69\x6f\x6e"))
(assert (= literal_4 "\x61\x64\x64\x61\x6e\x65\x77\x71\x75\x65\x73\x74\x69\x6f\x6e"))
(assert (or (= x_10 literal_8) (= x_10 literal_6) (= x_10 literal_4)))
(assert (str.in.re x_10 (re.++ (re.* re.allchar) (re.++ (str.to.re "\x5c\x3c\x53\x43\x52\x49\x50\x54") (re.* re.allchar)))))
(check-sat)
(get-model)
